WARNING: for repeatability, setting FPU to use double precision
============================[ Problem Statistics ]=============================
|                                                                             |
|  Number of variables:       6472782                                         |
|  Number of clauses:        25795161                                         |
|  Parse time:                   5.98 s                                       |
|                                                                             |
c ============================[ Search Statistics ]==============================
c | Conflicts |          ORIGINAL         |          LEARNT          | Progress |
c |           |    Vars  Clauses Literals |    Limit  Clauses Lit/Cl |          |
c ===============================================================================
c Switched to VSIDS.
c Switched to LRB.
c Switched to VSIDS.
c Switched to LRB.
c Switched to VSIDS.
c Switched to LRB.
c Switched to VSIDS.
c Switched to LRB.
c Switched to VSIDS.
c Switched to LRB.
c Switched to VSIDS.
c Switched to LRB.
c Switched to VSIDS.
c Switched to LRB.
c Switched to VSIDS.
c Switched to LRB.
c Switched to VSIDS.
c Switched to LRB.
c Switched to VSIDS.
c Switched to LRB.
c Switched to VSIDS.
c Switched to LRB.
c Switched to VSIDS.
c Switched to LRB.
c Switched to VSIDS.
c Switched to LRB.
c Switched to VSIDS.
c Switched to LRB.
c Switched to VSIDS.
c Switched to LRB.
c ===============================================================================
restarts                  : 352
conflicts                 : 55726          (16 /sec)
decisions                 : 5917679        (0.00 % random) (1740 /sec)
propagations              : 7503338070     (2206462 /sec)
conflict literals         : 27801198       (12.26 % deleted)

conflicts w/ DIP found    : 50859          (91.27 % of conflicts)
conflicts w/ dangerous DIP: 0              (0.00 % of conflicts)
conflicts w/ DIP-learning : 7656           (13.74 % of conflicts)
decisions on ext vars     : 1582           (0.03 % of decisions)
total ext vars            : 71          
tried delete ext vars     : 39          
deleted ext vars          : 39          
max ext vars              : 32          

Memory used               : 4191.00 MB
CPU time                  : 3400.62 s
DIP computation time      : 1.81471 s (0.05 % of total time)
ER_sel time               : 0.153493 s
ER_add time               : 0.001174 s
ER_delC time              : 0 s
ER_delV time              : 0.042868 s
ER_sub time               : 0.322567 s
ER_stat time              : 0 s

UNSATISFIABLE
